(set-logic ALL)
(declare-var x (BitVec 32))
(declare-var m (BitVec 32))
(declare-var n (BitVec 32))
(declare-var x! (BitVec 32))
(declare-var m! (BitVec 32))
(declare-var n! (BitVec 32))
(synth-fun inv-f((parameter0 (BitVec 32))(parameter1 (BitVec 32))(parameter2 (BitVec 32)))Bool) 
(constraint (=> (and (= x (_ bv0 32)) (and (= m (_ bv0 32)) (bvugt n (_ bv0 32)) ) )(inv-f x m n )))
(constraint (=> (and (inv-f x m n ) (or (and (bvuge x n) (and (= x! x) (and (= m! m) (= n! n) ) ) ) (or (and (bvult x n) (and (= x! (bvadd x (_ bv1 32))) (and (= m! x) (= n! n) ) ) ) (and (bvult x n) (and (= x! (bvadd x (_ bv1 32))) (and (= m! m) (= n! n) ) ) ) ) ) )(inv-f x! m! n! )))
(constraint (=> (inv-f x m n )(=> (bvuge x n)(or (bvule n (_ bv0 32)) (and (bvule (_ bv0 32) m) (bvult m n) ) ))))
(check-synth)

